NAME : obs.obs
TIME : 2020-10-25 17:05:09
COMMENT : hello world
DIMENSION : 26
OBSTACLE_SECTION
0 30 27
1 41 72
2 47 99
3 26 104
4 31 133
5 25 160
6 48 174
7 100 176
8 156 179
9 169 142
10 174 98
11 160 72
12 179 44
13 164 20
14 111 32
15 82 58
16 92 85
17 52 89
18 66 116
19 58 152
20 106 145
21 156 140
22 142 115
23 112 102
24 142 69
25 135 51
EOF
